
Gurobi 10.0.3 (linux64, gurobi_cl) logging started Fri Nov 10 18:29:17 2023

Set parameter Username
Set parameter TimeLimit to value 3600
Set parameter LogFile to value "RCPSP_1584.log"
Set parameter Threads to value 32
Academic license - for non-commercial use only - expires 2024-10-30
Using license file /home/jrivera6/gurobi-licenses/v1003/compute-0-34/gurobi.lic

Gurobi Optimizer version 10.0.3 build v10.0.3rc0 (linux64)
Copyright (c) 2023, Gurobi Optimization, LLC

Read MPS format model from file RCPSP_1584.mps
Reading time = 0.21 seconds
RCPSP_1584: 75214 rows, 29890 columns, 266028 nonzeros

CPU model: Intel(R) Xeon(R) Gold 6130 CPU @ 2.10GHz, instruction set [SSE2|AVX|AVX2|AVX512]
Thread count: 32 physical cores, 32 logical processors, using up to 32 threads

Optimize a model with 75214 rows, 29890 columns and 266028 nonzeros
Model fingerprint: 0xf1ce71d5
Variable types: 122 continuous, 29768 integer (29768 binary)
Coefficient statistics:
  Matrix range     [1e+00, 7e+02]
  Objective range  [1e+00, 1e+00]
  Bounds range     [1e+00, 1e+00]
  RHS range        [1e+00, 7e+02]
Presolve removed 11249 rows and 1868 columns
Presolve time: 3.77s
Presolved: 63965 rows, 28022 columns, 238215 nonzeros
Variable types: 121 continuous, 27901 integer (27901 binary)

Deterministic concurrent LP optimizer: primal and dual simplex (primal and dual model)
Showing first log only...

Root relaxation presolved: 63965 rows, 28022 columns, 238215 nonzeros


Root simplex log...

Iteration    Objective       Primal Inf.    Dual Inf.      Time
       0    9.0014221e+01   1.483733e-01   4.697119e+08      6s
    4968    8.2000000e+01   0.000000e+00   0.000000e+00      8s
Concurrent spin time: 0.48s

Solved with dual simplex (primal model)

Root relaxation: objective 8.200000e+01, 10394 iterations, 3.97 seconds (0.52 work units)
Total elapsed time = 12.21s
Total elapsed time = 15.14s

    Nodes    |    Current Node    |     Objective Bounds      |     Work
 Expl Unexpl |  Obj  Depth IntInf | Incumbent    BestBd   Gap | It/Node Time

     0     0   82.00000    0  171          -   82.00000      -     -   18s
     0     0   82.00000    0  850          -   82.00000      -     -   50s
     0     0   82.00000    0  850          -   82.00000      -     -   50s
     0     0   82.00000    0  849          -   82.00000      -     -   51s
     0     0   82.00000    0  972          -   82.00000      -     -   54s
     0     0   82.00000    0  166          -   82.00000      -     -   87s
     0     0   82.00000    0  158          -   82.00000      -     -  112s
     0     0   82.00000    0   35          -   82.00000      -     -  121s
     0     0   82.00000    0    7          -   82.00000      -     -  126s
     0     0   82.00000    0    9          -   82.00000      -     -  127s
     0     0   82.00000    0    4          -   82.00000      -     -  131s
     0     0   82.00000    0    8          -   82.00000      -     -  137s
     0     0   82.00000    0   12          -   82.00000      -     -  142s
     0     0   82.00000    0  250          -   82.00000      -     -  144s
     0     0   82.00000    0    2          -   82.00000      -     -  153s
     0     0   82.00000    0    2          -   82.00000      -     -  153s
     0     0   82.00000    0    2          -   82.00000      -     -  156s
     0     0   82.00000    0    2          -   82.00000      -     -  164s
     0     2   82.00000    0    2          -   82.00000      -     -  174s
     1     3   82.00000    1  180          -   82.00000      -   386  211s
     3     6   82.00000    2  182          -   82.00000      -   189  222s
     6    12   82.00000    3  230          -   82.00000      -   140  243s
    12    23   82.00000    4  224          -   82.00000      -   136  274s
    24    46   82.00000    5  108          -   82.00000      -   112  318s
    47    77   82.00000    6  162          -   82.00000      -   190  360s
    79   109   82.00000    7  154          -   82.00000      -   263  409s
   111   140   82.00000    8  152          -   82.00000      -   271  449s
   143   171   82.00000    9  152          -   82.00000      -   241  459s
   175   199   82.00000   10   20          -   82.00000      -   233  508s
*  201   199              10      82.0000000   82.00000  0.00%   549  508s

Cutting planes:
  Gomory: 33
  Lift-and-project: 3
  Cover: 14
  Implied bound: 164
  MIR: 849
  StrongCG: 6
  RLT: 1109
  Relax-and-lift: 154

Explored 208 nodes (204977 simplex iterations) in 509.76 seconds (34.65 work units)
Thread count was 32 (of 32 available processors)

Solution count 1: 82 

Optimal solution found (tolerance 1.00e-04)
Best objective 8.200000000000e+01, best bound 8.200000000000e+01, gap 0.0000%

Wrote result file 'RCPSP_1584.sol'

